nodes = 48;
edges = 112;
starts = [1, 1, 2, 3, 4, 5, 6, 7, 7, 8, 9, 10, 11, 11, 12, 13, 14, 15, 15, 16, 17, 17, 18, 19, 20, 20, 21, 22, 22, 23, 24, 24, 25, 26, 26, 27, 28, 28, 30, 31, 31, 33, 34, 35, 35, 36, 37, 37, 38, 41, 42, 43, 44, 45, 46, 47, 2, 10, 3, 12, 5, 14, 7, 8, 16, 9, 18, 11, 12, 21, 13, 23, 15, 16, 25, 17, 18, 27, 19, 29, 21, 30, 22, 23, 32, 24, 25, 34, 26, 27, 36, 28, 29, 38, 31, 32, 40, 42, 35, 36, 44, 37, 38, 46, 39, 42, 43, 44, 45, 46, 47, 48];
ends = [2, 10, 3, 12, 5, 14, 7, 8, 16, 9, 18, 11, 12, 21, 13, 23, 15, 16, 25, 17, 18, 27, 19, 29, 21, 30, 22, 23, 32, 24, 25, 34, 26, 27, 36, 28, 29, 38, 31, 32, 40, 42, 35, 36, 44, 37, 38, 46, 39, 42, 43, 44, 45, 46, 47, 48, 1, 1, 2, 3, 4, 5, 6, 7, 7, 8, 9, 10, 11, 11, 12, 13, 14, 15, 15, 16, 17, 17, 18, 19, 20, 20, 21, 22, 22, 23, 24, 24, 25, 26, 26, 27, 28, 28, 30, 31, 31, 33, 34, 35, 35, 36, 37, 37, 38, 41, 42, 43, 44, 45, 46, 47];
weights = [1, 6, 13, 15, 2, 1, 14, 9, 3, 4, 17, 6, 10, 17, 1, 13, 11, 19, 1, 12, 13, 15, 6, 16, 15, 1, 14, 14, 19, 10, 18, 12, 4, 4, 14, 15, 1, 16, 6, 1, 1, 1, 10, 12, 10, 1, 11, 15, 12, 1, 12, 4, 8, 13, 10, 8, 1, 6, 13, 15, 2, 1, 14, 9, 3, 4, 17, 6, 10, 17, 1, 13, 11, 19, 1, 12, 13, 15, 6, 16, 15, 1, 14, 14, 19, 10, 18, 12, 4, 4, 14, 15, 1, 16, 6, 1, 1, 1, 10, 12, 10, 1, 11, 15, 12, 1, 12, 4, 8, 13, 10, 8];
start = 1;
end= 48;
tasks = 2;
task = array2d(1..tasks, 1..nodes, [0, 0, 0, 0, 0, 0, 0, 0, 0, 0, 0, 0, 0, 0, 0, 0, 0, 0, 0, 0, 0, 0, 0, 1, 0, 0, 0, 0, 0, 0, 0, 0, 0, 0, 0, 0, 0, 0, 0, 0, 0, 0, 0, 0, 0, 0, 0, 0, 0, 0, 0, 0, 0, 0, 0, 0, 0, 0, 0, 0, 0, 0, 0, 0, 0, 0, 0, 0, 0, 0, 0, 0, 0, 0, 0, 0, 0, 0, 0, 0, 0, 0, 0, 0, 0, 0, 0, 0, 0, 0, 0, 0, 0, 1, 0, 0]);
